
Gurobi 6.5.2 (win64) logging started 07/23/16 03:51:24


Gurobi 6.5.2 (win64) logging started 07/23/16 03:51:24

Optimize a model with 32801 rows, 1608 columns and 70204 nonzeros
Coefficient statistics:
  Matrix range    [4e-06, 1e+03]
  Objective range [1e+00, 1e+00]
  Bounds range    [1e+00, 1e+00]
  RHS range       [1e+00, 1e+03]
Found heuristic solution: objective 1188.42
Presolve removed 32773 rows and 1580 columns
Presolve time: 0.01s
Presolved: 28 rows, 28 columns, 84 nonzeros
Found heuristic solution: objective 246.1325605
Variable types: 28 continuous, 0 integer (0 binary)

Root relaxation: objective 2.154431e+02, 20 iterations, 0.00 seconds

    Nodes    |    Current Node    |     Objective Bounds      |     Work
 Expl Unexpl |  Obj  Depth IntInf | Incumbent    BestBd   Gap | It/Node Time

*    0     0               0     215.4430574  215.44306  0.00%     -    0s

Explored 0 nodes (20 simplex iterations) in 0.06 seconds
Thread count was 8 (of 8 available processors)

Optimal solution found (tolerance 1.00e-04)
Best objective 2.154430573875e+02, best bound 2.154430573875e+02, gap 0.0%

Wrote requested result file 'H2\instance28\\Results28EC_Sol4.lp'

